54620 14481
26186 61030
34948 41836
46487 54856
2104 26414
28811 19943
61828 52894
30819 4593
60426 30256
19029 10285
58284 20849
31000 58691
4761 1862
54584 39853
12604 36688
34243 47236
60677 16256
53562 18487
14447 45441
